/*********************************************
 * OPL 12.8.0.0 Data
 * Author: gwren
 * Creation Date: 4 May 2019 at 04:13:37
 *********************************************/

 N = 10;
 values = [171,111,21,117,123,34,3,121,112,12];
 weights = [44,92,73,15,71,12,13,14,23,15];
 C = 100;
 c = 100;
 selectFirstObject = 1;